
--- Job sourceFile.gms Start 08/10/24 19:57:35 47.4.0 838fd78c WEX-WEI x86 64bit/MS Windows
--- Applying:
    C:\Program Files (x86)\GAMS\47\gmsprmNT.txt
--- GAMS Parameters defined
    Input C:\projects\itStud9Lp2024\gamsWorkSpace\sourceFile.gms
    PageSize 0
    ScrDir C:\projects\itStud9Lp2024\gamsWorkSpace\225a\
    SysDir "C:\Program Files (x86)\GAMS\47\"
    LogOption 3
    ErrMsg 1
    ErrorLog 99
    IDE 1
    LstTitleLeftAligned 1
Licensee: Course License                                 S240418|0002AO-GEN
          Stiftung Universitaet Hildesheim                          DCE3433
          C:\Program Files (x86)\GAMS\47\gamslice.txt
          License Admin: Julia Rieck, rieck@bwl.uni-hildesheim.de          
          Course license for use within the course and related course work
          The evaluation period of the license will expire on Oct 15, 2024
Processor information: 1 socket(s), 6 core(s), and 12 thread(s) available
GAMS 47.4.0   Copyright (C) 1987-2024 GAMS Development. All rights reserved
--- Starting compilation
--- sourceFile.gms(323) 3 Mb
--- Starting execution: elapsed 0:00:00.006
--- sourceFile.gms(293) 4 Mb
--- Generating MIP model optModel
--- sourceFile.gms(308) 26 Mb
---   36,681 rows  76,786 columns  268,710 non-zeroes
---   75,262 discrete-columns
--- Range statistics (absolute non-zero finite values)
--- RHS       [min, max] : [ 1.000E+00, 6.000E+00] - Zero values observed as well
--- Bound     [min, max] : [ 1.000E+00, 1.000E+00] - Zero values observed as well
--- Matrix    [min, max] : [ 5.000E-01, 1.000E+00]
--- Executing CPLEX (Solvelink=2): elapsed 0:00:00.741

IBM ILOG CPLEX   47.4.0 838fd78c Jul 30, 2024          WEI x86 64bit/MS Window

--- GAMS/CPLEX Link licensed for continuous and discrete problems.
--- GMO setup time: 0.00s
--- Space for names approximately 3.32 Mb
--- Use option 'names no' to turn use of names off
--- GMO memory 25.64 Mb (peak 26.22 Mb)
--- Dictionary memory 0.00 Mb
--- Cplex 22.1.1.0 link memory 1.88 Mb (peak 9.17 Mb)
--- Starting Cplex

Version identifier: 22.1.1.0 | 2022-11-27 | 9160aff4d
CPXPARAM_Advance                                 0
CPXPARAM_MIP_Display                             4
CPXPARAM_MIP_Pool_Capacity                       0
CPXPARAM_MIP_Tolerances_AbsMIPGap                0
Generic callback                                 0x50
Dual infeasible due to empty column 'v_st(OP,t924)'.
Presolve time = 0.00 sec. (11.64 ticks)

Root node processing (before b&c):
  Real time             =    0.02 sec. (16.28 ticks)
Parallel b&c, 12 threads:
  Real time             =    0.00 sec. (0.00 ticks)
  Sync time (average)   =    0.00 sec.
  Wait time (average)   =    0.00 sec.
                          ------------
Total (root+branch&cut) =    0.02 sec. (16.28 ticks)

--- MIP status (119): integer infeasible or unbounded.
--- Cplex Time: 0.02sec (det. 16.50 ticks)

CPLEX Error  1217: No solution exists.
--- Problem is integer infeasible
--- Reading solution for model optModel
--- Executing after solve: elapsed 0:00:01.010
--- sourceFile.gms(323) 26 Mb
*** Status: Normal completion
--- Job sourceFile.gms Stop 08/10/24 19:57:36 elapsed 0:00:01.012
